NAME 
ROWS
 N  OBJ
 L  R0      
 L  R1      
 E  R2      
 E  R3      
 E  R4      
 E  R5      
 E  R6      
 E  R7      
 E  R8      
 E  R9      
 E  R10     
 E  R11     
 E  R12     
 E  R13     
 E  R14     
 E  R15     
 E  R16     
 E  R17     
 E  R18     
 E  R19     
 E  R20     
 E  R21     
 E  R22     
 E  R23     
 E  R24     
 E  R25     
 E  R26     
COLUMNS
    MARKER    'MARKER'                 'INTORG'
    I0(9)     OBJ       99
    I0(9)     R0        -37
    I0(9)     R1        90
    I0(9)     R4        17
    I0(9)     R5        1
    I0(9)     R9        12
    I0(9)     R10       14
    I0(9)     R11       7
    I0(9)     R12       2
    I0(9)     R26       1
    I1(11)    OBJ       7
    I1(11)    R0        107
    I1(11)    R1        -160
    I1(11)    R2        6
    I1(11)    R3        18
    I1(11)    R4        14
    I1(11)    R5        9
    I1(11)    R9        9
    I1(11)    R10       15
    I1(11)    R11       -1
    I1(11)    R13       13
    I1(11)    R26       1
    I2(10)    OBJ       -179
    I2(10)    R0        144
    I2(10)    R1        6
    I2(10)    R2        1
    I2(10)    R6        1
    I2(10)    R7        3
    I2(10)    R8        11
    I2(10)    R10       16
    I2(10)    R11       4
    I2(10)    R13       15
    I2(10)    R26       1
    I3(10)    OBJ       -169
    I3(10)    R0        -159
    I3(10)    R1        -8
    I3(10)    R3        10
    I3(10)    R4        6
    I3(10)    R5        2
    I3(10)    R6        7
    I3(10)    R10       -1
    I3(10)    R12       6
    I3(10)    R13       -1
    I3(10)    R26       1
    I4(12)    OBJ       -155
    I4(12)    R0        79
    I4(12)    R1        -69
    I4(12)    R2        17
    I4(12)    R3        4
    I4(12)    R4        -1
    I4(12)    R5        -1
    I4(12)    R7        17
    I4(12)    R9        9
    I4(12)    R10       17
    I4(12)    R11       8
    I4(12)    R12       17
    I4(12)    R26       1
    I5(10)    OBJ       -49
    I5(10)    R0        131
    I5(10)    R1        92
    I5(10)    R2        -1
    I5(10)    R4        13
    I5(10)    R5        13
    I5(10)    R9        4
    I5(10)    R10       17
    I5(10)    R12       1
    I5(10)    R13       11
    I5(10)    R26       1
    I6(13)    OBJ       -127
    I6(13)    R0        -94
    I6(13)    R1        176
    I6(13)    R2        19
    I6(13)    R3        11
    I6(13)    R4        9
    I6(13)    R5        16
    I6(13)    R7        2
    I6(13)    R8        2
    I6(13)    R9        19
    I6(13)    R10       10
    I6(13)    R12       7
    I6(13)    R13       18
    I6(13)    R26       1
    I7(11)    OBJ       30
    I7(11)    R0        -134
    I7(11)    R1        -31
    I7(11)    R2        6
    I7(11)    R3        15
    I7(11)    R4        4
    I7(11)    R6        3
    I7(11)    R8        19
    I7(11)    R10       14
    I7(11)    R11       8
    I7(11)    R13       19
    I7(11)    R26       1
    I8(10)    OBJ       -158
    I8(10)    R0        49
    I8(10)    R1        23
    I8(10)    R2        1
    I8(10)    R3        13
    I8(10)    R5        2
    I8(10)    R6        15
    I8(10)    R10       2
    I8(10)    R11       13
    I8(10)    R13       2
    I8(10)    R26       1
    I9(11)    OBJ       33
    I9(11)    R0        14
    I9(11)    R1        -162
    I9(11)    R2        16
    I9(11)    R4        2
    I9(11)    R7        14
    I9(11)    R8        9
    I9(11)    R9        10
    I9(11)    R11       17
    I9(11)    R12       1
    I9(11)    R13       7
    I9(11)    R26       1
    I10(9)    OBJ       165
    I10(9)    R0        -24
    I10(9)    R1        -107
    I10(9)    R3        19
    I10(9)    R5        7
    I10(9)    R7        8
    I10(9)    R9        12
    I10(9)    R10       9
    I10(9)    R13       14
    I10(9)    R26       1
    I11(13)   OBJ       -38
    I11(13)   R0        59
    I11(13)   R1        -94
    I11(13)   R2        16
    I11(13)   R3        10
    I11(13)   R5        1
    I11(13)   R6        3
    I11(13)   R7        1
    I11(13)   R8        19
    I11(13)   R9        8
    I11(13)   R10       8
    I11(13)   R12       2
    I11(13)   R13       11
    I11(13)   R26       1
    MARKER    'MARKER'                 'INTEND'
    C12(15)   OBJ       8
    C12(15)   R0        7
    C12(15)   R1        -8
    C12(15)   R4        -1
    C12(15)   R8        11
    C12(15)   R9        2
    C12(15)   R10       6
    C12(15)   R11       14
    C12(15)   R15       8
    C12(15)   R16       -1
    C12(15)   R17       6
    C12(15)   R18       8
    C12(15)   R20       17
    C12(15)   R22       15
    C12(15)   R24       9
    C12(15)   R25       14
    C13(22)   OBJ       5
    C13(22)   R0        -9
    C13(22)   R1        -5
    C13(22)   R2        14
    C13(22)   R3        4
    C13(22)   R4        4
    C13(22)   R5        13
    C13(22)   R6        7
    C13(22)   R7        -1
    C13(22)   R9        2
    C13(22)   R10       9
    C13(22)   R11       12
    C13(22)   R12       10
    C13(22)   R13       3
    C13(22)   R14       8
    C13(22)   R16       3
    C13(22)   R17       13
    C13(22)   R18       11
    C13(22)   R20       2
    C13(22)   R21       3
    C13(22)   R22       18
    C13(22)   R24       12
    C13(22)   R25       9
    C14(16)   OBJ       -5
    C14(16)   R0        9
    C14(16)   R1        6
    C14(16)   R4        15
    C14(16)   R5        16
    C14(16)   R9        16
    C14(16)   R10       14
    C14(16)   R11       10
    C14(16)   R12       15
    C14(16)   R13       15
    C14(16)   R16       13
    C14(16)   R17       1
    C14(16)   R18       6
    C14(16)   R19       5
    C14(16)   R23       15
    C14(16)   R24       12
    C14(16)   R25       18
    C15(21)   OBJ       1
    C15(21)   R0        -6
    C15(21)   R1        3
    C15(21)   R3        10
    C15(21)   R4        4
    C15(21)   R5        4
    C15(21)   R6        14
    C15(21)   R7        8
    C15(21)   R8        14
    C15(21)   R9        16
    C15(21)   R10       10
    C15(21)   R11       3
    C15(21)   R13       5
    C15(21)   R14       1
    C15(21)   R15       6
    C15(21)   R17       5
    C15(21)   R18       12
    C15(21)   R19       3
    C15(21)   R20       9
    C15(21)   R21       14
    C15(21)   R24       16
    C15(21)   R25       14
    C16(19)   OBJ       -3
    C16(19)   R0        -9
    C16(19)   R1        1
    C16(19)   R2        3
    C16(19)   R3        2
    C16(19)   R4        6
    C16(19)   R5        5
    C16(19)   R7        10
    C16(19)   R8        2
    C16(19)   R9        6
    C16(19)   R10       9
    C16(19)   R14       11
    C16(19)   R15       4
    C16(19)   R16       11
    C16(19)   R17       19
    C16(19)   R18       7
    C16(19)   R19       19
    C16(19)   R21       4
    C16(19)   R22       2
    C16(19)   R25       1
    C17(18)   OBJ       2
    C17(18)   R0        4
    C17(18)   R1        6
    C17(18)   R2        2
    C17(18)   R3        5
    C17(18)   R6        14
    C17(18)   R10       10
    C17(18)   R11       6
    C17(18)   R12       13
    C17(18)   R13       3
    C17(18)   R14       15
    C17(18)   R15       5
    C17(18)   R16       6
    C17(18)   R17       4
    C17(18)   R18       15
    C17(18)   R19       -1
    C17(18)   R20       12
    C17(18)   R22       10
    C17(18)   R24       18
    C18(18)   OBJ       -2
    C18(18)   R0        4
    C18(18)   R2        7
    C18(18)   R3        -1
    C18(18)   R4        16
    C18(18)   R5        18
    C18(18)   R6        6
    C18(18)   R7        5
    C18(18)   R9        15
    C18(18)   R10       2
    C18(18)   R11       12
    C18(18)   R13       10
    C18(18)   R14       19
    C18(18)   R18       4
    C18(18)   R21       1
    C18(18)   R22       16
    C18(18)   R23       9
    C18(18)   R24       -1
    C18(18)   R25       12
    C19(17)   OBJ       -7
    C19(17)   R0        -8
    C19(17)   R1        1
    C19(17)   R2        17
    C19(17)   R4        14
    C19(17)   R5        1
    C19(17)   R6        17
    C19(17)   R8        18
    C19(17)   R11       1
    C19(17)   R13       12
    C19(17)   R14       11
    C19(17)   R15       8
    C19(17)   R16       12
    C19(17)   R17       7
    C19(17)   R18       1
    C19(17)   R19       2
    C19(17)   R20       10
    C19(17)   R25       16
    C20(14)   OBJ       -9
    C20(14)   R0        8
    C20(14)   R1        1
    C20(14)   R4        11
    C20(14)   R6        1
    C20(14)   R7        9
    C20(14)   R8        18
    C20(14)   R9        16
    C20(14)   R10       15
    C20(14)   R14       3
    C20(14)   R15       11
    C20(14)   R16       7
    C20(14)   R17       5
    C20(14)   R23       6
    C20(14)   R25       7
    C21(16)   OBJ       -5
    C21(16)   R0        5
    C21(16)   R1        -9
    C21(16)   R2        6
    C21(16)   R3        17
    C21(16)   R5        3
    C21(16)   R6        18
    C21(16)   R7        6
    C21(16)   R9        19
    C21(16)   R13       12
    C21(16)   R14       3
    C21(16)   R18       9
    C21(16)   R19       2
    C21(16)   R20       -1
    C21(16)   R22       9
    C21(16)   R24       14
    C21(16)   R25       15
    C22(20)   OBJ       4
    C22(20)   R0        3
    C22(20)   R1        -5
    C22(20)   R2        4
    C22(20)   R3        8
    C22(20)   R4        17
    C22(20)   R5        2
    C22(20)   R6        10
    C22(20)   R8        17
    C22(20)   R10       11
    C22(20)   R11       18
    C22(20)   R12       13
    C22(20)   R13       -1
    C22(20)   R15       15
    C22(20)   R16       -1
    C22(20)   R17       2
    C22(20)   R20       16
    C22(20)   R21       3
    C22(20)   R22       8
    C22(20)   R23       3
    C22(20)   R24       7
    C23(16)   OBJ       -1
    C23(16)   R0        2
    C23(16)   R1        -3
    C23(16)   R2        8
    C23(16)   R3        15
    C23(16)   R4        10
    C23(16)   R7        9
    C23(16)   R8        1
    C23(16)   R12       7
    C23(16)   R14       1
    C23(16)   R15       16
    C23(16)   R16       14
    C23(16)   R17       5
    C23(16)   R19       1
    C23(16)   R21       15
    C23(16)   R22       7
    C23(16)   R25       3
    C24(20)   OBJ       -3
    C24(20)   R0        -2
    C24(20)   R1        -7
    C24(20)   R2        9
    C24(20)   R3        12
    C24(20)   R4        14
    C24(20)   R5        18
    C24(20)   R6        16
    C24(20)   R8        7
    C24(20)   R10       4
    C24(20)   R11       17
    C24(20)   R13       14
    C24(20)   R14       15
    C24(20)   R17       13
    C24(20)   R19       13
    C24(20)   R20       2
    C24(20)   R21       15
    C24(20)   R22       15
    C24(20)   R23       5
    C24(20)   R24       14
    C24(20)   R25       7
    C25(1)    R2        1
    C26(1)    R3        1
    C27(1)    R4        1
    C28(1)    R5        1
    C29(1)    R6        1
    C30(1)    R7        1
    C31(1)    R8        1
    C32(1)    R9        1
    C33(1)    R10       1
    C34(1)    R11       1
    C35(1)    R12       1
    C36(1)    R13       1
    C37(1)    R14       1
    C38(1)    R15       1
    C39(1)    R16       1
    C40(1)    R17       1
    C41(1)    R18       1
    C42(1)    R19       1
    C43(1)    R20       1
    C44(1)    R21       1
    C45(1)    R22       1
    C46(1)    R23       1
    C47(1)    R24       1
    C48(1)    R25       1
    C49(1)    R26       1
RHS
    RHS1      R0        -3.5999507155432418e+01
    RHS1      R1        -1.6173863102636275e+01
    RHS1      R2        88
    RHS1      R3        56
    RHS1      R4        97
    RHS1      R5        55
    RHS1      R6        75
    RHS1      R7        79
    RHS1      R8        67
    RHS1      R9        77
    RHS1      R10       72
    RHS1      R11       93
    RHS1      R12       69
    RHS1      R13       97
    RHS1      R14       82
    RHS1      R15       75
    RHS1      R16       98
    RHS1      R17       56
    RHS1      R18       82
    RHS1      R19       79
    RHS1      R20       52
    RHS1      R21       72
    RHS1      R22       90
    RHS1      R23       69
    RHS1      R24       76
    RHS1      R25       54
    RHS1      R26       4
BOUNDS
 UP BND1      I0(9)     2
 UP BND1      I1(11)    2
 UP BND1      I2(10)    2
 UP BND1      I3(10)    2
 UP BND1      I4(12)    2
 UP BND1      I5(10)    2
 UP BND1      I6(13)    2
 UP BND1      I7(11)    2
 UP BND1      I8(10)    2
 UP BND1      I9(11)    2
 UP BND1      I10(9)    2
 UP BND1      I11(13)   2
ENDATA
